Academic license - for non-commercial use only
Optimize a model with 8740 rows, 8400 columns and 1322657 nonzeros
Variable types: 0 continuous, 8400 integer (8400 binary)
Coefficient statistics:
  Matrix range     [1e+00, 4e+01]
  Objective range  [1e+00, 8e+01]
  Bounds range     [1e+00, 1e+00]
  RHS range        [1e+00, 2e+02]
Presolve removed 1904 rows and 1708 columns (presolve time = 5s) ...
Presolve removed 1904 rows and 1708 columns
Presolve time: 5.17s
Presolved: 6836 rows, 6692 columns, 1015312 nonzeros
Variable types: 0 continuous, 6692 integer (6692 binary)
Found heuristic solution: objective 273.0000000

Root simplex log...

Iteration    Objective       Primal Inf.    Dual Inf.      Time
       0    0.0000000e+00   6.086000e+03   0.000000e+00      6s
     137    1.1930872e+02   0.000000e+00   0.000000e+00      6s

Root relaxation: objective 1.193087e+02, 137 iterations, 0.09 seconds

    Nodes    |    Current Node    |     Objective Bounds      |     Work
 Expl Unexpl |  Obj  Depth IntInf | Incumbent    BestBd   Gap | It/Node Time

     0     0  119.30872    0   61  273.00000  119.30872  56.3%     -    5s
H    0     0                     245.0000000  119.30872  51.3%     -    6s
H    0     0                     188.0000000  119.30872  36.5%     -    7s
     0     0  134.05667    0   55  188.00000  134.05667  28.7%     -    8s
     0     0  136.94071    0   56  188.00000  136.94071  27.2%     -    9s
     0     0  136.94227    0   56  188.00000  136.94227  27.2%     -    9s
     0     0  147.19048    0   35  188.00000  147.19048  21.7%     -   10s
     0     0  147.19549    0   44  188.00000  147.19549  21.7%     -   11s
     0     0  147.20304    0   44  188.00000  147.20304  21.7%     -   11s
     0     0  158.36667    0   48  188.00000  158.36667  15.8%     -   12s
     0     0  158.36667    0   61  188.00000  158.36667  15.8%     -   17s
     0     0  158.36667    0   54  188.00000  158.36667  15.8%     -   19s
     0     0  158.36667    0   64  188.00000  158.36667  15.8%     -   19s
     0     0  158.36667    0   56  188.00000  158.36667  15.8%     -   19s
     0     0  158.36667    0   56  188.00000  158.36667  15.8%     -   19s
     0     0  158.36667    0   57  188.00000  158.36667  15.8%     -   20s
     0     0  165.58333    0   33  188.00000  165.58333  11.9%     -   21s
     0     0  165.58333    0   61  188.00000  165.58333  11.9%     -   26s
     0     0  165.58333    0   50  188.00000  165.58333  11.9%     -   27s
     0     0  165.58333    0   40  188.00000  165.58333  11.9%     -   28s
     0     0  165.58333    0   56  188.00000  165.58333  11.9%     -   28s
     0     0  165.58333    0   62  188.00000  165.58333  11.9%     -   28s
     0     0  165.58333    0   42  188.00000  165.58333  11.9%     -   28s
     0     0  165.58333    0   39  188.00000  165.58333  11.9%     -   28s
     0     0  170.06250    0   32  188.00000  170.06250  9.54%     -   29s
     0     0  170.12021    0   17  188.00000  170.12021  9.51%     -   29s
     0     0  174.25893    0   63  188.00000  174.25893  7.31%     -   29s
     0     0  174.25893    0   60  188.00000  174.25893  7.31%     -   34s
     0     0  174.25893    0   56  188.00000  174.25893  7.31%     -   35s
     0     0  174.25893    0   41  188.00000  174.25893  7.31%     -   35s
     0     0  174.25893    0   38  188.00000  174.25893  7.31%     -   35s
     0     0  174.25893    0   58  188.00000  174.25893  7.31%     -   35s
     0     0  174.25893    0   63  188.00000  174.25893  7.31%     -   35s
     0     0  174.25893    0   68  188.00000  174.25893  7.31%     -   36s
     0     0  180.01515    0   52  188.00000  180.01515  4.25%     -   36s
     0     0  182.01182    0   78  188.00000  182.01182  3.19%     -   37s
     0     0  182.01182    0   60  188.00000  182.01182  3.19%     -   40s
     0     0  182.01182    0   73  188.00000  182.01182  3.19%     -   40s
     0     0  182.01182    0   62  188.00000  182.01182  3.19%     -   40s
     0     0  182.01182    0   50  188.00000  182.01182  3.19%     -   40s
     0     0  182.01182    0   56  188.00000  182.01182  3.19%     -   40s
     0     0  182.01182    0   73  188.00000  182.01182  3.19%     -   41s
     0     0  182.01182    0   41  188.00000  182.01182  3.19%     -   41s
     0     0  182.01863    0   51  188.00000  182.01863  3.18%     -   41s
     0     0  182.02034    0   56  188.00000  182.02034  3.18%     -   41s
     0     0  183.66667    0   42  188.00000  183.66667  2.30%     -   41s
     0     0  184.00000    0    4  188.00000  184.00000  2.13%     -   41s
     0     0  184.00000    0   65  188.00000  184.00000  2.13%     -   43s
     0     0  184.00000    0   58  188.00000  184.00000  2.13%     -   43s
     0     0  184.00000    0   70  188.00000  184.00000  2.13%     -   43s
     0     0  184.00000    0   57  188.00000  184.00000  2.13%     -   43s
     0     0  184.00000    0   66  188.00000  184.00000  2.13%     -   43s
     0     0  184.00000    0   64  188.00000  184.00000  2.13%     -   43s
     0     0  184.00000    0   61  188.00000  184.00000  2.13%     -   43s
     0     0  184.00000    0   53  188.00000  184.00000  2.13%     -   43s
     0     0  184.00000    0    8  188.00000  184.00000  2.13%     -   43s
     0     0  185.00000    0   46  188.00000  185.00000  1.60%     -   43s
     0     0  185.00000    0   51  188.00000  185.00000  1.60%     -   43s
*    0     0               0     185.0000000  185.00000  0.00%     -   43s
     0     0          -    0       185.00000  185.00000  0.00%     -   43s

Cutting planes:
  Gomory: 2
  Cover: 1
  Clique: 90
  MIR: 3

Explored 1 nodes (6203 simplex iterations) in 43.99 seconds
Thread count was 8 (of 8 available processors)

Solution count 4: 185 188 245 273 

Optimal solution found (tolerance 1.00e-04)
Best objective 1.850000000000e+02, best bound 1.850000000000e+02, gap 0.0000%

